Welcome to the CBC MILP Solver 
Version: 2.8.9 
Build Date: Nov 24 2015 

command line - /vol/cc/opt/maxeler/maxcompiler-2015.2/bin/cbc convolutionKernel00_schedule_C.mps.gz -threads 4 -solve -printi csv -solu convolutionKernel00_schedule_C.csv (default strategy 1)
At line 1 NAME           CxSchedule
At line 2 ROWS
At line 3861 COLUMNS
At line 9455 RHS
At line 11385 BOUNDS
At line 14090 ENDATA
Problem CxSchedule has 3857 rows, 2704 columns and 9640 elements
Coin0008I CxSchedule read with 0 errors
threads was changed from 0 to 4
Continuous objective value is 2653 - 0.15 seconds
Cgl0003I 0 fixed, 3620 tightened bounds, 0 strengthened rows, 0 substitutions
Cgl0003I 0 fixed, 2341 tightened bounds, 0 strengthened rows, 0 substitutions
Cgl0003I 0 fixed, 2151 tightened bounds, 0 strengthened rows, 0 substitutions
Cgl0003I 0 fixed, 1249 tightened bounds, 0 strengthened rows, 0 substitutions
Cgl0003I 0 fixed, 336 tightened bounds, 0 strengthened rows, 0 substitutions
Cgl0003I 0 fixed, 30 tightened bounds, 0 strengthened rows, 0 substitutions
Cgl0003I 0 fixed, 1 tightened bounds, 0 strengthened rows, 0 substitutions
Cgl0004I processed model has 3857 rows, 2701 columns (2701 integer) and 9640 elements
Cutoff increment increased from 1e-05 to 0.9999
Cbc0012I Integer solution of 2653 found by DiveCoefficient after 0 iterations and 0 nodes (0.29 seconds)
Cbc0030I Thread 0 used 0 times,  waiting to start 0.01629734, 0 cpu time, 0 locks, 0 locked, 0 waiting for locks
Cbc0030I Thread 1 used 0 times,  waiting to start 0.013212681, 0 cpu time, 0 locks, 0 locked, 0 waiting for locks
Cbc0030I Thread 2 used 0 times,  waiting to start 0.00994277, 0 cpu time, 0 locks, 0 locked, 0 waiting for locks
Cbc0030I Thread 3 used 0 times,  waiting to start 0.006667614, 0 cpu time, 0 locks, 0 locked, 0 waiting for locks
Cbc0030I Main thread 0 waiting for threads,  1 locks, 7.1525574e-06 locked, 2.3841858e-07 waiting for locks
Cbc0001I Search completed - best objective 2653, took 0 iterations and 0 nodes (0.31 seconds)
Cbc0035I Maximum depth 0, 0 variables fixed on reduced cost
Cuts at root node changed objective from 2653 to 2653
Probing was tried 0 times and created 0 cuts of which 0 were active after adding rounds of cuts (0.000 seconds)
Gomory was tried 0 times and created 0 cuts of which 0 were active after adding rounds of cuts (0.000 seconds)
Knapsack was tried 0 times and created 0 cuts of which 0 were active after adding rounds of cuts (0.000 seconds)
Clique was tried 0 times and created 0 cuts of which 0 were active after adding rounds of cuts (0.000 seconds)
MixedIntegerRounding2 was tried 0 times and created 0 cuts of which 0 were active after adding rounds of cuts (0.000 seconds)
FlowCover was tried 0 times and created 0 cuts of which 0 were active after adding rounds of cuts (0.000 seconds)
TwoMirCuts was tried 0 times and created 0 cuts of which 0 were active after adding rounds of cuts (0.000 seconds)

Result - Optimal solution found

Objective value:                2653.00000000
Enumerated nodes:               0
Total iterations:               0
Time (CPU seconds):             0.39
Time (Wallclock seconds):       0.41

Option for printingOptions changed from normal to csv
Total time (CPU seconds):       0.40   (Wallclock seconds):       0.42

